c generated by ezSAT
c
c mapping of variables to literals:
c   1: CONST_TRUE
c   2: CONST_FALSE
c   3: in
c   4: out
c
c mapping of variables to expressions:
c  -3: -1
c   7: -2
c   3: -3
c  -4: -4
c   6: -5
c   5: -6
c   7: -7
c
p cnf 7 13
   1           0
  -2           0
   1           0
   4  -3   5   0
  -5  -4       0
  -5   3       0
   3  -4   6   0
  -6  -3       0
  -6   4       0
   5   6  -7   0
   7  -5       0
   7  -6       0
   7           0
